<?xml version = "1.0" standalone="yes"?>
<!-- This file has been generated by DOcplex version 2.23.222  -->
<CPLEXSolution version="1.0">
 <header
   problemName="CVRP"
   objectiveValue="11653.7"
  />
 <variables>
  <variable name="x_0_1" index="0" value="1.00000"/>
  <variable name="x_0_3" index="2" value="1.00000"/>
  <variable name="x_0_4" index="3" value="1.00000"/>
  <variable name="x_0_5" index="4" value="1.00000"/>
  <variable name="x_0_6" index="5" value="1.00000"/>
  <variable name="x_0_7" index="6" value="1.00000"/>
  <variable name="x_0_9" index="8" value="1.00000"/>
  <variable name="x_0_10" index="9" value="1.00000"/>
  <variable name="x_0_12" index="11" value="1.00000"/>
  <variable name="x_0_13" index="12" value="1.00000"/>
  <variable name="x_0_16" index="15" value="1.00000"/>
  <variable name="x_1_0" index="18" value="1.00000"/>
  <variable name="x_2_0" index="36" value="1.00000"/>
  <variable name="x_3_11" index="64" value="1.00000"/>
  <variable name="x_4_0" index="72" value="1.00000"/>
  <variable name="x_5_14" index="103" value="1.00000"/>
  <variable name="x_6_0" index="108" value="1.00000"/>
  <variable name="x_7_8" index="133" value="1.00000"/>
  <variable name="x_8_15" index="158" value="1.00000"/>
  <variable name="x_9_0" index="162" value="1.00000"/>
  <variable name="x_10_17" index="196" value="1.00000"/>
  <variable name="x_11_18" index="215" value="1.00000"/>
  <variable name="x_12_0" index="216" value="1.00000"/>
  <variable name="x_13_0" index="234" value="1.00000"/>
  <variable name="x_14_0" index="252" value="1.00000"/>
  <variable name="x_15_2" index="272" value="1.00000"/>
  <variable name="x_16_0" index="288" value="1.00000"/>
  <variable name="x_17_0" index="306" value="1.00000"/>
  <variable name="x_18_0" index="324" value="1.00000"/>
  <variable name="u_1" index="342" value="54.00000"/>
  <variable name="u_2" index="343" value="54.00000"/>
  <variable name="u_3" index="344" value="26.00000"/>
  <variable name="u_4" index="345" value="49.00000"/>
  <variable name="u_5" index="346" value="30.00000"/>
  <variable name="u_6" index="347" value="54.00000"/>
  <variable name="u_7" index="348" value="5.00000"/>
  <variable name="u_8" index="349" value="32.00000"/>
  <variable name="u_9" index="350" value="50.00000"/>
  <variable name="u_10" index="351" value="24.00000"/>
  <variable name="u_11" index="352" value="42.00000"/>
  <variable name="u_12" index="353" value="38.00000"/>
  <variable name="u_13" index="354" value="54.00000"/>
  <variable name="u_14" index="355" value="53.00000"/>
  <variable name="u_15" index="356" value="51.00000"/>
  <variable name="u_16" index="357" value="54.00000"/>
  <variable name="u_17" index="358" value="54.00000"/>
  <variable name="u_18" index="359" value="54.00000"/>
 </variables>
</CPLEXSolution>
